(set-logic QF_FP)
(set-info :smt-lib-version 2.0)
(set-info :category "crafted")
(set-info :source |Alberto Griggio <griggio@fbk.eu>. These benchmarks were used for the evaluation in the following paper: L. Haller, A. Griggio, M. Brain, D. Kroening: Deciding floating-point logic with systematic abstraction. FMCAD 2012. Real-numbered literals have been automatically translated by MathSAT|)
(set-info :status unknown)
;; MathSAT API call trace
;; generated on 05/20/15 17:24:52

(declare-fun b37 () (_ FloatingPoint 8 24))
(declare-fun b69 () (_ FloatingPoint 8 24))
(declare-fun b72 () (_ FloatingPoint 8 24))
(declare-fun b31 () (_ FloatingPoint 8 24))
(declare-fun b13 () (_ FloatingPoint 8 24))
(declare-fun b34 () (_ FloatingPoint 8 24))
(declare-fun b22 () (_ FloatingPoint 8 24))
(declare-fun b11 () (_ FloatingPoint 8 24))
(declare-fun b41 () (_ FloatingPoint 11 53))
(declare-fun b28 () (_ FloatingPoint 8 24))
(declare-fun b16 () (_ FloatingPoint 8 24))
(declare-fun b25 () (_ FloatingPoint 8 24))
(declare-fun b19 () (_ FloatingPoint 8 24))
(define-fun _t_3 () RoundingMode RNE)
(define-fun _t_9 () (_ FloatingPoint 8 24) b69)
(define-fun _t_10 () (_ FloatingPoint 8 24) b11)
(define-fun _t_11 () Bool (fp.lt _t_9 _t_10))
(define-fun _t_12 () (_ FloatingPoint 8 24) b13)
(define-fun _t_13 () (_ FloatingPoint 8 24) (fp.mul _t_3 _t_10 _t_12))
(define-fun _t_14 () (_ FloatingPoint 8 24) b16)
(define-fun _t_15 () (_ FloatingPoint 8 24) (fp.mul _t_3 _t_13 _t_14))
(define-fun _t_16 () (_ FloatingPoint 8 24) b19)
(define-fun _t_17 () (_ FloatingPoint 8 24) (fp.mul _t_3 _t_15 _t_16))
(define-fun _t_18 () (_ FloatingPoint 8 24) b22)
(define-fun _t_19 () (_ FloatingPoint 8 24) (fp.mul _t_3 _t_17 _t_18))
(define-fun _t_20 () (_ FloatingPoint 8 24) b25)
(define-fun _t_21 () (_ FloatingPoint 8 24) (fp.mul _t_3 _t_19 _t_20))
(define-fun _t_22 () (_ FloatingPoint 8 24) b28)
(define-fun _t_23 () (_ FloatingPoint 8 24) (fp.mul _t_3 _t_21 _t_22))
(define-fun _t_24 () (_ FloatingPoint 8 24) b31)
(define-fun _t_25 () (_ FloatingPoint 8 24) (fp.mul _t_3 _t_23 _t_24))
(define-fun _t_26 () (_ FloatingPoint 8 24) b34)
(define-fun _t_27 () (_ FloatingPoint 8 24) (fp.mul _t_3 _t_25 _t_26))
(define-fun _t_28 () (_ FloatingPoint 8 24) b37)
(define-fun _t_29 () (_ FloatingPoint 8 24) (fp.mul _t_3 _t_27 _t_28))
(define-fun _t_30 () (_ FloatingPoint 11 53) ((_ to_fp 11 53) _t_3 _t_29))
(define-fun _t_31 () (_ FloatingPoint 11 53) b41)
(define-fun _t_32 () Bool (fp.lt _t_31 _t_30))
(define-fun _t_33 () Bool (and _t_11 _t_32))
(define-fun _t_34 () (_ FloatingPoint 8 24) b72)
(define-fun _t_35 () Bool (fp.lt _t_10 _t_34))
(define-fun _t_36 () Bool (and _t_33 _t_35))
(define-fun _t_37 () Bool (fp.lt _t_9 _t_12))
(define-fun _t_38 () Bool (and _t_36 _t_37))
(define-fun _t_39 () Bool (fp.lt _t_12 _t_34))
(define-fun _t_40 () Bool (and _t_38 _t_39))
(define-fun _t_41 () Bool (fp.lt _t_9 _t_14))
(define-fun _t_42 () Bool (and _t_40 _t_41))
(define-fun _t_43 () Bool (fp.lt _t_14 _t_34))
(define-fun _t_44 () Bool (and _t_42 _t_43))
(define-fun _t_45 () Bool (fp.lt _t_9 _t_16))
(define-fun _t_46 () Bool (and _t_44 _t_45))
(define-fun _t_47 () Bool (fp.lt _t_16 _t_34))
(define-fun _t_48 () Bool (and _t_46 _t_47))
(define-fun _t_49 () Bool (fp.lt _t_9 _t_18))
(define-fun _t_50 () Bool (and _t_48 _t_49))
(define-fun _t_51 () Bool (fp.lt _t_18 _t_34))
(define-fun _t_52 () Bool (and _t_50 _t_51))
(define-fun _t_53 () Bool (fp.lt _t_9 _t_20))
(define-fun _t_54 () Bool (and _t_52 _t_53))
(define-fun _t_55 () Bool (fp.lt _t_20 _t_34))
(define-fun _t_56 () Bool (and _t_54 _t_55))
(define-fun _t_57 () Bool (fp.lt _t_9 _t_22))
(define-fun _t_58 () Bool (and _t_56 _t_57))
(define-fun _t_59 () Bool (fp.lt _t_22 _t_34))
(define-fun _t_60 () Bool (and _t_58 _t_59))
(define-fun _t_61 () Bool (fp.lt _t_9 _t_24))
(define-fun _t_62 () Bool (and _t_60 _t_61))
(define-fun _t_63 () Bool (fp.lt _t_24 _t_34))
(define-fun _t_64 () Bool (and _t_62 _t_63))
(define-fun _t_65 () Bool (fp.lt _t_9 _t_26))
(define-fun _t_66 () Bool (and _t_64 _t_65))
(define-fun _t_67 () Bool (fp.lt _t_26 _t_34))
(define-fun _t_68 () Bool (and _t_66 _t_67))
(define-fun _t_69 () Bool (fp.lt _t_9 _t_28))
(define-fun _t_70 () Bool (and _t_68 _t_69))
(define-fun _t_71 () Bool (fp.lt _t_28 _t_34))
(define-fun _t_72 () Bool (and _t_70 _t_71))
(assert _t_72)
(check-sat)
